%SETS
JOBS = 1..25;
MACHINES = 1..20;
SPEED    = 5;

time = array3d(JOBS,MACHINES,1..SPEED,[99, 34, 24, 20, 17, 41, 14, 10, 8, 7, 16, 5, 3, 3, 2, 39, 13, 9, 7, 7, 3, 1, 1, 1, 1, 26, 9, 6, 5, 4, 4, 1, 1, 1, 1, 74, 25, 18, 15, 13, 19, 6, 4, 3, 3, 13, 4, 3, 2, 2, 7, 2, 1, 1, 1, 38, 13, 9, 7, 6, 15, 5, 3, 3, 2, 21, 7, 5, 4, 3, 1, 1, 1, 1, 1, 24, 8, 6, 5, 4, 24, 8, 6, 4, 4, 24, 8, 6, 5, 4, 74, 25, 18, 15, 13, 29, 10, 7, 6, 5, 11, 3, 2, 2, 2, 14, 5, 3, 3, 2, 30, 10, 7, 6, 5, 1, 1, 1, 1, 1, 28, 9, 6, 5, 5, 28, 9, 7, 5, 5, 6, 2, 1, 1, 1, 3, 1, 1, 1, 1, 9, 3, 2, 1, 1, 11, 4, 2, 2, 2, 21, 7, 5, 4, 3, 14, 5, 3, 3, 2, 115, 39, 28, 23, 20, 2, 1, 1, 1, 1, 6, 2, 1, 1, 1, 4, 1, 1, 1, 1, 27, 9, 6, 5, 4, 7, 2, 1, 1, 1, 16, 5, 3, 3, 2, 7, 2, 1, 1, 1, 4, 1, 1, 1, 1, 3, 1, 1, 1, 1, 27, 9, 6, 5, 4, 3, 1, 1, 1, 1, 5, 1, 1, 1, 1, 11, 4, 2, 2, 2, 44, 15, 10, 9, 8, 2, 1, 1, 1, 1, 47, 16, 11, 9, 8, 2, 1, 1, 1, 1, 97, 33, 23, 19, 17, 16, 5, 4, 3, 2, 97, 33, 23, 19, 17, 24, 8, 5, 4, 4, 34, 12, 8, 7, 6, 1, 1, 1, 1, 1, 8, 2, 2, 1, 1, 3, 1, 1, 1, 1, 9, 3, 2, 1, 1, 3, 1, 1, 1, 1, 9, 3, 2, 2, 1, 13, 4, 3, 2, 2, 1, 1, 1, 1, 1, 30, 10, 7, 6, 5, 21, 7, 5, 4, 3, 7, 2, 1, 1, 1, 19, 6, 4, 3, 3, 2, 1, 1, 1, 1, 22, 7, 5, 4, 3, 68, 23, 16, 13, 12, 9, 3, 2, 2, 1, 28, 9, 6, 5, 5, 3, 1, 1, 1, 1, 32, 11, 7, 6, 5, 8, 3, 2, 1, 1, 5, 1, 1, 1, 1, 22, 7, 5, 4, 4, 1, 1, 1, 1, 1, 45, 15, 11, 9, 8, 1, 1, 1, 1, 1, 29, 10, 7, 5, 5, 8, 2, 1, 1, 1, 34, 11, 8, 6, 6, 84, 29, 20, 17, 15, 7, 2, 1, 1, 1, 22, 7, 5, 4, 3, 23, 8, 5, 4, 4, 21, 7, 5, 4, 3, 6, 2, 1, 1, 1, 78, 27, 19, 16, 14, 15, 5, 3, 3, 2, 48, 16, 11, 9, 8, 31, 10, 7, 6, 5, 9, 3, 2, 1, 1, 43, 15, 10, 8, 7, 13, 4, 3, 2, 2, 55, 19, 13, 11, 9, 22, 7, 5, 4, 4, 55, 19, 13, 11, 9, 30, 10, 7, 6, 5, 33, 11, 8, 6, 6, 18, 6, 4, 3, 3, 80, 27, 19, 16, 14, 26, 9, 6, 5, 4, 14, 4, 3, 2, 2, 24, 8, 5, 4, 4, 1, 1, 1, 1, 1, 9, 3, 2, 1, 1, 27, 9, 6, 5, 5, 8, 3, 2, 1, 1, 24, 8, 6, 5, 4, 14, 5, 3, 2, 2, 3, 1, 1, 1, 1, 9, 3, 2, 1, 1, 21, 7, 5, 4, 3, 23, 7, 5, 4, 4, 22, 7, 5, 4, 3, 27, 9, 6, 5, 4, 27, 9, 6, 5, 4, 14, 5, 3, 2, 2, 58, 20, 14, 11, 10, 11, 4, 2, 2, 2, 14, 5, 3, 3, 2, 57, 19, 14, 11, 10, 42, 14, 10, 8, 7, 31, 10, 7, 6, 5, 2, 1, 1, 1, 1, 65, 22, 15, 13, 11, 32, 11, 7, 6, 5, 175, 60, 42, 35, 31, 4, 1, 1, 1, 1, 52, 18, 12, 10, 9, 4, 1, 1, 1, 1, 24, 8, 6, 5, 4, 3, 1, 1, 1, 1, 48, 16, 11, 9, 8, 42, 14, 10, 8, 7, 21, 7, 5, 4, 3, 13, 4, 3, 2, 2, 1, 1, 1, 1, 1, 30, 10, 7, 6, 5, 15, 5, 3, 3, 2, 33, 11, 8, 6, 5, 52, 17, 12, 10, 9, 96, 33, 23, 19, 17, 50, 17, 12, 10, 9, 1, 1, 1, 1, 1, 11, 3, 2, 2, 2, 33, 11, 8, 6, 6, 4, 1, 1, 1, 1, 19, 6, 4, 3, 3, 1, 1, 1, 1, 1, 5, 1, 1, 1, 1, 1, 1, 1, 1, 1, 40, 14, 10, 8, 7, 6, 2, 1, 1, 1, 10, 3, 2, 2, 1, 68, 23, 16, 13, 12, 31, 10, 7, 6, 5, 1, 1, 1, 1, 1, 4, 1, 1, 1, 1, 25, 8, 6, 5, 4, 22, 7, 5, 4, 4, 7, 2, 1, 1, 1, 70, 24, 17, 14, 12, 24, 8, 6, 5, 4, 19, 6, 4, 4, 3, 23, 7, 5, 4, 4, 33, 11, 8, 6, 6, 9, 3, 2, 1, 1, 13, 4, 3, 2, 2, 6, 2, 1, 1, 1, 5, 1, 1, 1, 1, 74, 25, 18, 15, 13, 34, 12, 8, 7, 6, 17, 6, 4, 3, 3, 6, 2, 1, 1, 1, 7, 2, 1, 1, 1, 1, 1, 1, 1, 1, 14, 5, 3, 2, 2, 9, 3, 2, 1, 1, 30, 10, 7, 6, 5, 12, 4, 3, 2, 2, 5, 1, 1, 1, 1, 1, 1, 1, 1, 1, 1, 1, 1, 1, 1, 29, 10, 7, 5, 5, 15, 5, 3, 3, 2, 19, 6, 4, 4, 3, 58, 20, 14, 11, 10, 120, 41, 29, 24, 21, 6, 2, 1, 1, 1, 28, 9, 6, 5, 5, 7, 2, 1, 1, 1, 1, 1, 1, 1, 1, 36, 12, 9, 7, 6, 9, 3, 2, 2, 1, 12, 4, 3, 2, 2, 22, 7, 5, 4, 4, 46, 15, 11, 9, 8, 25, 8, 6, 5, 4, 53, 18, 13, 10, 9, 8, 2, 2, 1, 1, 41, 14, 10, 8, 7, 5, 1, 1, 1, 1, 79, 27, 19, 16, 14, 30, 10, 7, 6, 5, 6, 2, 1, 1, 1, 76, 26, 18, 15, 13, 33, 11, 8, 6, 6, 7, 2, 1, 1, 1, 6, 2, 1, 1, 1, 18, 6, 4, 3, 3, 1, 1, 1, 1, 1, 6, 2, 1, 1, 1, 14, 4, 3, 2, 2, 12, 4, 2, 2, 2, 16, 5, 3, 3, 2, 8, 2, 2, 1, 1, 22, 7, 5, 4, 4, 51, 17, 12, 10, 9, 3, 1, 1, 1, 1, 18, 6, 4, 3, 3, 3, 1, 1, 1, 1, 32, 11, 7, 6, 5, 13, 4, 3, 2, 2, 21, 7, 5, 4, 3, 5, 1, 1, 1, 1, 4, 1, 1, 1, 1, 17, 5, 4, 3, 3, 11, 3, 2, 2, 2, 72, 25, 17, 14, 13, 37, 12, 9, 7, 6, 35, 12, 8, 7, 6, 60, 20, 14, 12, 10, 2, 1, 1, 1, 1, 20, 7, 5, 4, 3, 22, 7, 5, 4, 4, 84, 29, 20, 17, 15, 8, 3, 2, 1, 1, 7, 2, 1, 1, 1, 2, 1, 1, 1, 1, 1, 1, 1, 1, 1, 68, 23, 16, 13, 12, 28, 9, 7, 5, 5, 39, 13, 9, 8, 7, 8, 2, 2, 1, 1, 22, 7, 5, 4, 4, 1, 1, 1, 1, 1, 17, 5, 4, 3, 3, 98, 33, 24, 19, 17, 54, 18, 13, 11, 9, 10, 3, 2, 2, 1, 84, 29, 20, 17, 15, 6, 2, 1, 1, 1, 77, 26, 18, 15, 13, 73, 25, 17, 14, 13, 41, 14, 10, 8, 7, 25, 8, 6, 5, 4, 53, 18, 13, 10, 9, 8, 3, 2, 1, 1, 48, 16, 11, 9, 8, 24, 8, 6, 5, 4, 1, 1, 1, 1, 1, 11, 3, 2, 2, 1, 4, 1, 1, 1, 1, 103, 35, 25, 21, 18, 16, 5, 4, 3, 3, 17, 6, 4, 3, 3, 26, 9, 6, 5, 4, 11, 4, 2, 2, 2, 3, 1, 1, 1, 1, 44, 15, 10, 9, 8, 5, 1, 1, 1, 1, 18, 6, 4, 3, 3, 6, 2, 1, 1, 1, 2, 1, 1, 1, 1, 51, 17, 12, 10, 9, 93, 32, 22, 18, 16, 83, 28, 20, 17, 15, 61, 21, 15, 12, 11, 38, 13, 9, 7, 6, 10, 3, 2, 2, 1, 2, 1, 1, 1, 1, 13, 4, 3, 2, 2, 6, 2, 1, 1, 1, 3, 1, 1, 1, 1, 1, 1, 1, 1, 1, 33, 11, 8, 6, 6, 1, 1, 1, 1, 1, 38, 13, 9, 7, 6, 4, 1, 1, 1, 1, 2, 1, 1, 1, 1, 2, 1, 1, 1, 1, 28, 9, 7, 5, 5, 7, 2, 1, 1, 1, 14, 4, 3, 2, 2, 21, 7, 5, 4, 3, 50, 17, 12, 10, 9, 33, 11, 8, 6, 6, 8, 2, 1, 1, 1, 3, 1, 1, 1, 1, 1, 1, 1, 1, 1, 9, 3, 2, 1, 1, 7, 2, 1, 1, 1, 15, 5, 3, 3, 2, 29, 10, 7, 6, 5, 30, 10, 7, 6, 5, 8, 2, 2, 1, 1, 12, 4, 3, 2, 2, 5, 1, 1, 1, 1, 40, 13, 9, 8, 7, 1, 1, 1, 1, 1, 30, 10, 7, 6, 5, 39, 13, 9, 7, 7, 38, 13, 9, 7, 6, 7, 2, 1, 1, 1, 12, 4, 2, 2, 2, 22, 7, 5, 4, 4, 8, 2, 2, 1, 1, 11, 4, 2, 2, 2, 5, 1, 1, 1, 1, 15, 5, 3, 3, 2, 1, 1, 1, 1, 1, 41, 14, 10, 8, 7, 2, 1, 1, 1, 1, 18, 6, 4, 3, 3, 9, 3, 2, 1, 1, 22, 7, 5, 4, 4, 82, 28, 20, 16, 14, 26, 9, 6, 5, 4, 1, 1, 1, 1, 1, 14, 5, 3, 2, 2, 18, 6, 4, 3, 3, 19, 6, 4, 4, 3, 29, 10, 7, 6, 5, 8, 2, 2, 1, 1, 3, 1, 1, 1, 1, 12, 4, 3, 2, 2, 81, 27, 19, 16, 14, 5, 1, 1, 1, 1, 60, 20, 14, 12, 10, 20, 7, 4, 4, 3, 15, 5, 3, 3, 2, 55, 19, 13, 11, 9, 15, 5, 3, 3, 2, 33, 11, 8, 6, 5, 13, 4, 3, 2, 2, 60, 20, 14, 12, 10, 30, 10, 7, 6, 5, 31, 10, 7, 6, 5, 10, 3, 2, 2, 1, 36, 12, 8, 7, 6, 26, 9, 6, 5, 4, 7, 2, 1, 1, 1, 4, 1, 1, 1, 1, 41, 14, 10, 8, 7, 82, 28, 20, 16, 14, 15, 5, 3, 3, 2, 23, 7, 5, 4, 4, 50, 17, 12, 10, 9, 15, 5, 3, 3, 2, 78, 27, 19, 15, 14, 22, 7, 5, 4, 3, 44, 15, 10, 9, 8, 61, 21, 15, 12, 11, 43, 15, 10, 8, 7, 4, 1, 1, 1, 1, 25, 8, 6, 5, 4, 13, 4, 3, 2, 2, 1, 1, 1, 1, 1, 14, 4, 3, 2, 2, 7, 2, 1, 1, 1, 48, 16, 11, 9, 8, 1, 1, 1, 1, 1, 82, 28, 20, 16, 14, 11, 3, 2, 2, 2, 11, 3, 2, 2, 2, 1, 1, 1, 1, 1, 5, 1, 1, 1, 1, 13, 4, 3, 2, 2, 68, 23, 16, 13, 12, 2, 1, 1, 1, 1, 75, 25, 18, 15, 13, 52, 18, 12, 10, 9, 15, 5, 3, 3, 2, 10, 3, 2, 2, 1, 6, 2, 1, 1, 1, 24, 8, 6, 5, 4, 1, 1, 1, 1, 1, 1, 1, 1, 1, 1, 14, 5, 3, 2, 2, 1, 1, 1, 1, 1, 7, 2, 1, 1, 1, 6, 2, 1, 1, 1, 7, 2, 1, 1, 1, 3, 1, 1, 1, 1, 1, 1, 1, 1, 1, 3, 1, 1, 1, 1, 24, 8, 6, 5, 4, 94, 32, 23, 19, 17, 120, 41, 29, 24, 21, 13, 4, 3, 2, 2, 4, 1, 1, 1, 1, 26, 9, 6, 5, 4, 17, 6, 4, 3, 3, 117, 40, 28, 23, 21, 1, 1, 1, 1, 1, 39, 13, 9, 8, 7, 8, 3, 2, 1, 1, 7, 2, 1, 1, 1, 28, 9, 6, 5, 5, 7, 2, 1, 1, 1, 28, 9, 6, 5, 5, 18, 6, 4, 3, 3, 14, 4, 3, 2, 2, 20, 7, 5, 4, 3, 8, 3, 2, 1, 1, 31, 10, 7, 6, 5, 13, 4, 3, 2, 2, 11, 3, 2, 2, 2, 45, 15, 11, 9, 8, 67, 23, 16, 13, 12, 1, 1, 1, 1, 1, 6, 2, 1, 1, 1, 11, 3, 2, 2, 1, 43, 15, 10, 8, 7, 109, 37, 26, 22, 19, 89, 31, 22, 18, 16, 60, 21, 14, 12, 10, 9, 3, 2, 1, 1, 124, 43, 30, 25, 22, 7, 2, 1, 1, 1, 2, 1, 1, 1, 1, 78, 26, 19, 15, 14, 6, 2, 1, 1, 1, 30, 10, 7, 6, 5, 1, 1, 1, 1, 1, 33, 11, 8, 6, 6, 55, 19, 13, 11, 9, 8, 2, 2, 1, 1, 12, 4, 3, 2, 2, 12, 4, 2, 2, 2, 35, 12, 8, 7, 6, 7, 2, 1, 1, 1, 4, 1, 1, 1, 1, 15, 5, 3, 3, 2, 9, 3, 2, 1, 1, 47, 16, 11, 9, 8, 7, 2, 1, 1, 1, 18, 6, 4, 3, 3, 73, 25, 18, 15, 13, 26, 8, 6, 5, 4, 52, 18, 12, 10, 9, 72, 25, 17, 14, 13, 35, 12, 8, 7, 6, 31, 10, 7, 6, 5, 89, 30, 21, 18, 16, 134, 46, 32, 27, 24, 15, 5, 3, 3, 2, 1, 1, 1, 1, 1, 8, 3, 2, 1, 1, 4, 1, 1, 1, 1, 13, 4, 3, 2, 2, 3, 1, 1, 1, 1, 23, 8, 5, 4, 4, 12, 4, 3, 2, 2, 58, 20, 14, 11, 10, 88, 30, 21, 18, 16, 20, 7, 5, 4, 3, 8, 2, 2, 1, 1, 23, 8, 5, 4, 4, 58, 20, 14, 11, 10, 13, 4, 3, 2, 2, 20, 7, 5, 4, 3, 8, 2, 2, 1, 1, 15, 5, 3, 3, 2, 13, 4, 3, 2, 2, 7, 2, 1, 1, 1, 18, 6, 4, 3, 3, 9, 3, 2, 1, 1, 12, 4, 2, 2, 2, 19, 6, 4, 3, 3, 35, 12, 8, 7, 6, 10, 3, 2, 2, 1, 66, 23, 16, 13, 12, 51, 17, 12, 10, 9, 1, 1, 1, 1, 1, 7, 2, 1, 1, 1, 15, 5, 3, 3, 2, 2, 1, 1, 1, 1, 11, 3, 2, 2, 1, 34, 12, 8, 7, 6, 29, 10, 7, 6, 5, 25, 8, 6, 5, 4, 32, 11, 7, 6, 5, 5, 2, 1, 1, 1, 10, 3, 2, 2, 1, 29, 10, 7, 5, 5, 54, 18, 13, 11, 9]);
energy = array3d(JOBS,MACHINES,1..SPEED,[37, 71, 78, 81, 84, 66, 86, 90, 92, 93, 85, 95, 97, 97, 98, 67, 87, 91, 93, 93, 97, 99, 99, 99, 99, 77, 91, 94, 95, 96, 96, 99, 99, 99, 99, 47, 77, 83, 86, 87, 82, 94, 96, 97, 97, 87, 96, 97, 98, 98, 93, 98, 99, 99, 99, 68, 87, 91, 93, 94, 86, 95, 97, 97, 98, 81, 93, 95, 96, 97, 99, 99, 99, 99, 99, 78, 92, 94, 95, 96, 78, 92, 94, 96, 96, 78, 92, 94, 95, 96, 47, 77, 83, 86, 87, 74, 90, 93, 94, 95, 89, 97, 98, 98, 98, 86, 95, 97, 97, 98, 74, 90, 93, 94, 95, 99, 99, 99, 99, 99, 75, 91, 94, 95, 95, 75, 91, 93, 95, 95, 94, 98, 99, 99, 99, 97, 99, 99, 99, 99, 91, 97, 98, 99, 99, 89, 96, 98, 98, 98, 81, 93, 95, 96, 97, 86, 95, 97, 97, 98, 31, 67, 75, 79, 81, 98, 99, 99, 99, 99, 94, 98, 99, 99, 99, 96, 99, 99, 99, 99, 76, 91, 94, 95, 96, 93, 98, 99, 99, 99, 85, 95, 97, 97, 98, 93, 98, 99, 99, 99, 96, 99, 99, 99, 99, 97, 99, 99, 99, 99, 76, 91, 94, 95, 96, 97, 99, 99, 99, 99, 95, 99, 99, 99, 99, 89, 96, 98, 98, 98, 64, 86, 90, 91, 92, 98, 99, 99, 99, 99, 62, 85, 89, 91, 92, 98, 99, 99, 99, 99, 37, 71, 79, 82, 84, 85, 95, 96, 97, 98, 37, 71, 79, 82, 84, 78, 92, 95, 96, 96, 71, 88, 92, 93, 94, 99, 99, 99, 99, 99, 92, 98, 98, 99, 99, 97, 99, 99, 99, 99, 91, 97, 98, 99, 99, 97, 99, 99, 99, 99, 91, 97, 98, 98, 99, 87, 96, 97, 98, 98, 99, 99, 99, 99, 99, 74, 90, 93, 94, 95, 81, 93, 95, 96, 97, 93, 98, 99, 99, 99, 82, 94, 96, 97, 97, 98, 99, 99, 99, 99, 80, 93, 95, 96, 97, 50, 79, 85, 87, 88, 91, 97, 98, 98, 99, 75, 91, 94, 95, 95, 97, 99, 99, 99, 99, 72, 89, 93, 94, 95, 92, 97, 98, 99, 99, 95, 99, 99, 99, 99, 80, 93, 95, 96, 96, 99, 99, 99, 99, 99, 63, 86, 89, 91, 92, 99, 99, 99, 99, 99, 74, 90, 93, 95, 95, 92, 98, 99, 99, 99, 71, 89, 92, 94, 94, 43, 74, 81, 84, 86, 93, 98, 99, 99, 99, 80, 93, 95, 96, 97, 79, 92, 95, 96, 96, 81, 93, 95, 96, 97, 94, 98, 99, 99, 99, 45, 76, 82, 85, 86, 86, 95, 97, 97, 98, 61, 85, 89, 91, 92, 73, 90, 93, 94, 95, 91, 97, 98, 99, 99, 65, 86, 90, 92, 93, 87, 96, 97, 98, 98, 57, 82, 87, 89, 91, 80, 93, 95, 96, 96, 57, 82, 87, 89, 91, 74, 90, 93, 94, 95, 71, 89, 92, 94, 94, 83, 94, 96, 97, 97, 44, 76, 82, 85, 86, 77, 91, 94, 95, 96, 86, 96, 97, 98, 98, 78, 92, 95, 96, 96, 99, 99, 99, 99, 99, 91, 97, 98, 99, 99, 76, 91, 94, 95, 95, 92, 97, 98, 99, 99, 78, 92, 94, 95, 96, 86, 95, 97, 98, 98, 97, 99, 99, 99, 99, 91, 97, 98, 99, 99, 81, 93, 95, 96, 97, 79, 93, 95, 96, 96, 80, 93, 95, 96, 97, 76, 91, 94, 95, 96, 76, 91, 94, 95, 96, 86, 95, 97, 98, 98, 55, 81, 86, 89, 90, 89, 96, 98, 98, 98, 86, 95, 97, 97, 98, 56, 82, 86, 89, 90, 65, 86, 90, 92, 93, 73, 90, 93, 94, 95, 98, 99, 99, 99, 99, 52, 80, 86, 87, 89, 72, 89, 93, 94, 95, 17, 54, 65, 70, 73, 96, 99, 99, 99, 99, 59, 83, 88, 90, 91, 96, 99, 99, 99, 99, 78, 92, 94, 95, 96, 97, 99, 99, 99, 99, 61, 85, 89, 91, 92, 65, 86, 90, 92, 93, 81, 93, 95, 96, 97, 87, 96, 97, 98, 98, 99, 99, 99, 99, 99, 74, 90, 93, 94, 95, 86, 95, 97, 97, 98, 71, 89, 92, 94, 95, 59, 84, 88, 90, 91, 38, 71, 79, 82, 84, 60, 84, 88, 90, 91, 99, 99, 99, 99, 99, 89, 97, 98, 98, 98, 71, 89, 92, 94, 94, 96, 99, 99, 99, 99, 82, 94, 96, 97, 97, 99, 99, 99, 99, 99, 95, 99, 99, 99, 99, 99, 99, 99, 99, 99, 67, 86, 90, 92, 93, 94, 98, 99, 99, 99, 90, 97, 98, 98, 99, 50, 79, 85, 87, 88, 73, 90, 93, 94, 95, 99, 99, 99, 99, 99, 96, 99, 99, 99, 99, 77, 92, 94, 95, 96, 80, 93, 95, 96, 96, 93, 98, 99, 99, 99, 49, 78, 84, 86, 88, 78, 92, 94, 95, 96, 82, 94, 96, 96, 97, 79, 93, 95, 96, 96, 71, 89, 92, 94, 94, 91, 97, 98, 99, 99, 87, 96, 97, 98, 98, 94, 98, 99, 99, 99, 95, 99, 99, 99, 99, 47, 77, 83, 86, 87, 71, 88, 92, 93, 94, 84, 94, 96, 97, 97, 94, 98, 99, 99, 99, 93, 98, 99, 99, 99, 99, 99, 99, 99, 99, 86, 95, 97, 98, 98, 91, 97, 98, 99, 99, 74, 90, 93, 94, 95, 88, 96, 97, 98, 98, 95, 99, 99, 99, 99, 99, 99, 99, 99, 99, 99, 99, 99, 99, 99, 74, 90, 93, 95, 95, 86, 95, 97, 97, 98, 82, 94, 96, 96, 97, 55, 81, 86, 89, 90, 30, 66, 74, 78, 81, 94, 98, 99, 99, 99, 75, 91, 94, 95, 95, 93, 98, 99, 99, 99, 99, 99, 99, 99, 99, 69, 88, 91, 93, 94, 91, 97, 98, 98, 99, 88, 96, 97, 98, 98, 80, 93, 95, 96, 96, 63, 86, 89, 91, 92, 77, 92, 94, 95, 96, 58, 83, 87, 90, 91, 92, 98, 98, 99, 99, 66, 86, 90, 92, 93, 95, 99, 99, 99, 99, 45, 76, 82, 85, 86, 74, 90, 93, 94, 95, 94, 98, 99, 99, 99, 46, 77, 83, 86, 87, 71, 89, 92, 94, 94, 93, 98, 99, 99, 99, 94, 98, 99, 99, 99, 83, 94, 96, 97, 97, 99, 99, 99, 99, 99, 94, 98, 99, 99, 99, 86, 96, 97, 98, 98, 88, 96, 98, 98, 98, 85, 95, 97, 97, 98, 92, 98, 98, 99, 99, 80, 93, 95, 96, 96, 60, 84, 88, 90, 91, 97, 99, 99, 99, 99, 83, 94, 96, 97, 97, 97, 99, 99, 99, 99, 72, 89, 93, 94, 95, 87, 96, 97, 98, 98, 81, 93, 95, 96, 97, 95, 99, 99, 99, 99, 96, 99, 99, 99, 99, 84, 95, 96, 97, 97, 89, 97, 98, 98, 98, 48, 77, 84, 86, 87, 69, 88, 91, 93, 94, 70, 88, 92, 93, 94, 54, 81, 86, 88, 90, 98, 99, 99, 99, 99, 81, 93, 95, 96, 97, 80, 93, 95, 96, 96, 43, 74, 81, 84, 86, 92, 97, 98, 99, 99, 93, 98, 99, 99, 99, 98, 99, 99, 99, 99, 99, 99, 99, 99, 99, 50, 79, 85, 87, 88, 75, 91, 93, 95, 95, 67, 87, 91, 92, 93, 92, 98, 98, 99, 99, 80, 93, 95, 96, 96, 99, 99, 99, 99, 99, 84, 95, 96, 97, 97, 37, 71, 78, 82, 84, 58, 83, 87, 89, 91, 90, 97, 98, 98, 99, 43, 74, 81, 84, 86, 94, 98, 99, 99, 99, 46, 77, 83, 86, 87, 48, 77, 84, 86, 87, 66, 86, 90, 92, 93, 77, 92, 94, 95, 96, 58, 83, 87, 90, 91, 92, 97, 98, 99, 99, 61, 85, 89, 91, 92, 78, 92, 94, 95, 96, 99, 99, 99, 99, 99, 89, 97, 98, 98, 99, 96, 99, 99, 99, 99, 35, 70, 77, 81, 83, 85, 95, 96, 97, 97, 84, 94, 96, 97, 97, 77, 91, 94, 95, 96, 89, 96, 98, 98, 98, 97, 99, 99, 99, 99, 64, 86, 90, 91, 92, 95, 99, 99, 99, 99, 83, 94, 96, 97, 97, 94, 98, 99, 99, 99, 98, 99, 99, 99, 99, 60, 84, 88, 90, 91, 39, 72, 80, 83, 85, 43, 75, 81, 84, 86, 54, 81, 86, 88, 89, 68, 87, 91, 93, 94, 90, 97, 98, 98, 99, 98, 99, 99, 99, 99, 87, 96, 97, 98, 98, 94, 98, 99, 99, 99, 97, 99, 99, 99, 99, 99, 99, 99, 99, 99, 71, 89, 92, 94, 94, 99, 99, 99, 99, 99, 68, 87, 91, 93, 94, 96, 99, 99, 99, 99, 98, 99, 99, 99, 99, 98, 99, 99, 99, 99, 75, 91, 93, 95, 95, 93, 98, 99, 99, 99, 86, 96, 97, 98, 98, 81, 93, 95, 96, 97, 60, 84, 88, 90, 91, 71, 89, 92, 94, 94, 92, 98, 99, 99, 99, 97, 99, 99, 99, 99, 99, 99, 99, 99, 99, 91, 97, 98, 99, 99, 93, 98, 99, 99, 99, 86, 95, 97, 97, 98, 74, 90, 93, 94, 95, 74, 90, 93, 94, 95, 92, 98, 98, 99, 99, 88, 96, 97, 98, 98, 95, 99, 99, 99, 99, 67, 87, 91, 92, 93, 99, 99, 99, 99, 99, 74, 90, 93, 94, 95, 67, 87, 91, 93, 93, 68, 87, 91, 93, 94, 93, 98, 99, 99, 99, 88, 96, 98, 98, 98, 80, 93, 95, 96, 96, 92, 98, 98, 99, 99, 89, 96, 98, 98, 98, 95, 99, 99, 99, 99, 86, 95, 97, 97, 98, 99, 99, 99, 99, 99, 66, 86, 90, 92, 93, 98, 99, 99, 99, 99, 83, 94, 96, 97, 97, 91, 97, 98, 99, 99, 80, 93, 95, 96, 96, 44, 75, 81, 85, 86, 77, 91, 94, 95, 96, 99, 99, 99, 99, 99, 86, 95, 97, 98, 98, 83, 94, 96, 97, 97, 82, 94, 96, 96, 97, 74, 90, 93, 94, 95, 92, 98, 98, 99, 99, 97, 99, 99, 99, 99, 88, 96, 97, 98, 98, 44, 76, 82, 85, 86, 95, 99, 99, 99, 99, 54, 81, 86, 88, 90, 81, 93, 96, 96, 97, 86, 95, 97, 97, 98, 57, 82, 87, 89, 91, 86, 95, 97, 97, 98, 71, 89, 92, 94, 95, 87, 96, 97, 98, 98, 54, 81, 86, 88, 90, 74, 90, 93, 94, 95, 73, 90, 93, 94, 95, 90, 97, 98, 98, 99, 69, 88, 92, 93, 94, 77, 91, 94, 95, 96, 93, 98, 99, 99, 99, 96, 99, 99, 99, 99, 66, 86, 90, 92, 93, 44, 75, 81, 85, 86, 86, 95, 97, 97, 98, 79, 93, 95, 96, 96, 60, 84, 88, 90, 91, 86, 95, 97, 97, 98, 45, 76, 82, 86, 86, 80, 93, 95, 96, 97, 64, 86, 90, 91, 92, 54, 81, 86, 88, 89, 65, 86, 90, 92, 93, 96, 99, 99, 99, 99, 77, 92, 94, 95, 96, 87, 96, 97, 98, 98, 99, 99, 99, 99, 99, 86, 96, 97, 98, 98, 93, 98, 99, 99, 99, 61, 85, 89, 91, 92, 99, 99, 99, 99, 99, 44, 75, 81, 85, 86, 89, 97, 98, 98, 98, 89, 97, 98, 98, 98, 99, 99, 99, 99, 99, 95, 99, 99, 99, 99, 87, 96, 97, 98, 98, 50, 79, 85, 87, 88, 98, 99, 99, 99, 99, 47, 77, 83, 86, 87, 59, 83, 88, 90, 91, 86, 95, 97, 97, 98, 90, 97, 98, 98, 99, 94, 98, 99, 99, 99, 78, 92, 94, 95, 96, 99, 99, 99, 99, 99, 99, 99, 99, 99, 99, 86, 95, 97, 98, 98, 99, 99, 99, 99, 99, 93, 98, 99, 99, 99, 94, 98, 99, 99, 99, 93, 98, 99, 99, 99, 97, 99, 99, 99, 99, 99, 99, 99, 99, 99, 97, 99, 99, 99, 99, 78, 92, 94, 95, 96, 39, 72, 79, 82, 84, 30, 66, 74, 78, 81, 87, 96, 97, 98, 98, 96, 99, 99, 99, 99, 77, 91, 94, 95, 96, 84, 94, 96, 97, 97, 31, 67, 75, 79, 81, 99, 99, 99, 99, 99, 67, 87, 91, 92, 93, 92, 97, 98, 99, 99, 93, 98, 99, 99, 99, 75, 91, 94, 95, 95, 93, 98, 99, 99, 99, 75, 91, 94, 95, 95, 83, 94, 96, 97, 97, 86, 96, 97, 98, 98, 81, 93, 95, 96, 97, 92, 97, 98, 99, 99, 73, 90, 93, 94, 95, 87, 96, 97, 98, 98, 89, 97, 98, 98, 98, 63, 86, 89, 91, 92, 51, 79, 85, 87, 88, 99, 99, 99, 99, 99, 94, 98, 99, 99, 99, 89, 97, 98, 98, 99, 65, 86, 90, 92, 93, 33, 69, 77, 80, 82, 41, 73, 80, 83, 85, 54, 81, 86, 88, 90, 91, 97, 98, 99, 99, 28, 65, 74, 77, 80, 93, 98, 99, 99, 99, 98, 99, 99, 99, 99, 45, 77, 82, 86, 86, 94, 98, 99, 99, 99, 74, 90, 93, 94, 95, 99, 99, 99, 99, 99, 71, 89, 92, 94, 94, 57, 82, 87, 89, 91, 92, 98, 98, 99, 99, 88, 96, 97, 98, 98, 88, 96, 98, 98, 98, 70, 88, 92, 93, 94, 93, 98, 99, 99, 99, 96, 99, 99, 99, 99, 86, 95, 97, 97, 98, 91, 97, 98, 99, 99, 62, 85, 89, 91, 92, 93, 98, 99, 99, 99, 83, 94, 96, 97, 97, 48, 77, 83, 86, 87, 77, 92, 94, 95, 96, 59, 83, 88, 90, 91, 48, 77, 84, 86, 87, 70, 88, 92, 93, 94, 73, 90, 93, 94, 95, 41, 74, 81, 83, 85, 26, 63, 72, 76, 78, 86, 95, 97, 97, 98, 99, 99, 99, 99, 99, 92, 97, 98, 99, 99, 96, 99, 99, 99, 99, 87, 96, 97, 98, 98, 97, 99, 99, 99, 99, 79, 92, 95, 96, 96, 88, 96, 97, 98, 98, 55, 81, 86, 89, 90, 41, 74, 81, 83, 85, 81, 93, 95, 96, 97, 92, 98, 98, 99, 99, 79, 92, 95, 96, 96, 55, 81, 86, 89, 90, 87, 96, 97, 98, 98, 81, 93, 95, 96, 97, 92, 98, 98, 99, 99, 86, 95, 97, 97, 98, 87, 96, 97, 98, 98, 93, 98, 99, 99, 99, 83, 94, 96, 97, 97, 91, 97, 98, 99, 99, 88, 96, 98, 98, 98, 82, 94, 96, 97, 97, 70, 88, 92, 93, 94, 90, 97, 98, 98, 99, 51, 79, 85, 87, 88, 60, 84, 88, 90, 91, 99, 99, 99, 99, 99, 93, 98, 99, 99, 99, 86, 95, 97, 97, 98, 98, 99, 99, 99, 99, 89, 97, 98, 98, 99, 71, 88, 92, 93, 94, 74, 90, 93, 94, 95, 77, 92, 94, 95, 96, 72, 89, 93, 94, 95, 95, 98, 99, 99, 99, 90, 97, 98, 98, 99, 74, 90, 93, 95, 95, 58, 83, 87, 89, 91]);
precedence = array2d(JOBS,MACHINES,[9, 10, 5, 1, 18, 13, 19, 6, 16, 8, 15, 0, 11, 12, 14, 3, 17, 7, 4, 2, 11, 13, 4, 7, 12, 5, 15, 9, 2, 18, 3, 1, 17, 0, 14, 16, 6, 19, 8, 10, 4, 6, 2, 14, 18, 11, 13, 1, 8, 9, 17, 15, 12, 0, 5, 3, 10, 16, 7, 19, 13, 17, 8, 0, 9, 6, 11, 16, 5, 1, 14, 19, 7, 10, 4, 12, 15, 2, 3, 18, 11, 13, 16, 12, 19, 6, 3, 7, 5, 9, 8, 15, 1, 10, 2, 17, 14, 4, 0, 18, 10, 8, 7, 15, 5, 14, 19, 13, 3, 11, 4, 18, 16, 9, 17, 1, 0, 6, 12, 2, 17, 7, 0, 11, 16, 12, 14, 1, 2, 9, 4, 10, 5, 6, 3, 15, 8, 13, 18, 19, 13, 18, 12, 1, 19, 4, 9, 2, 3, 15, 14, 0, 5, 8, 6, 7, 16, 17, 11, 10, 9, 15, 8, 14, 7, 6, 3, 13, 5, 12, 16, 0, 2, 10, 11, 19, 18, 17, 4, 1, 9, 7, 15, 1, 14, 18, 2, 16, 6, 12, 0, 3, 13, 19, 8, 17, 11, 4, 10, 5, 9, 14, 10, 5, 19, 3, 2, 18, 11, 8, 17, 1, 6, 15, 4, 13, 12, 16, 0, 7, 13, 6, 18, 16, 8, 3, 2, 12, 15, 4, 5, 7, 0, 1, 11, 10, 14, 17, 19, 9, 18, 9, 12, 15, 2, 6, 0, 14, 3, 4, 1, 11, 16, 8, 19, 17, 10, 7, 5, 13, 17, 5, 15, 8, 7, 13, 6, 9, 19, 1, 3, 14, 0, 12, 18, 10, 4, 16, 2, 11, 1, 11, 5, 0, 16, 12, 10, 6, 7, 14, 19, 2, 15, 13, 4, 9, 18, 17, 8, 3, 14, 8, 7, 13, 17, 2, 6, 11, 19, 18, 4, 1, 15, 0, 12, 10, 3, 5, 16, 9, 11, 19, 13, 6, 1, 7, 2, 14, 9, 3, 0, 15, 17, 4, 12, 16, 8, 5, 18, 10, 3, 7, 2, 15, 4, 16, 0, 14, 11, 8, 1, 12, 17, 18, 19, 10, 5, 13, 9, 6, 17, 4, 0, 16, 12, 9, 13, 1, 5, 15, 2, 18, 11, 14, 6, 7, 10, 19, 8, 3, 5, 4, 6, 11, 1, 0, 14, 19, 7, 16, 3, 9, 10, 12, 2, 18, 15, 13, 17, 8, 18, 17, 10, 8, 15, 4, 3, 1, 11, 13, 14, 9, 12, 7, 19, 5, 0, 16, 2, 6, 9, 11, 13, 6, 4, 1, 5, 10, 2, 0, 18, 15, 3, 14, 8, 7, 17, 19, 16, 12, 8, 4, 3, 13, 1, 17, 7, 6, 14, 19, 11, 12, 5, 16, 10, 15, 0, 9, 18, 2, 10, 5, 17, 4, 13, 8, 6, 7, 14, 18, 1, 3, 12, 19, 15, 0, 2, 9, 16, 11, 5, 9, 7, 18, 15, 8, 6, 14, 16, 17, 13, 19, 0, 1, 3, 10, 12, 11, 4, 2]);